Route #1: 77 23 44 26 11 64 40 53
Route #2: 10 68 18 25 42 16 66 60 6
Route #3: 41 14 36 9 19 4 59 35 55 33 61
Route #4: 50 39 13 48 74 28
Route #5: 62 54 20 3 31 73 76
Route #6: 7 32 45 46 34 12 15
Route #7: 8 22 71 51 57 49 63
Route #8: 5 30 70 29 37 75 65 47
Route #9: 2 27 56 67 69 43 21 17
Route #10: 72 58 38 52 24 1
Cost 1271